c van der Waerden CNF for r = 2 k = 3 N = 9
p cnf 18 41
1 2 0
3 4 0
5 6 0
7 8 0
9 10 0
11 12 0
13 14 0
15 16 0
17 18 0
-1 -3 -5 0
-2 -4 -6 0
-1 -5 -9 0
-2 -6 -10 0
-1 -7 -13 0
-2 -8 -14 0
-1 -9 -17 0
-2 -10 -18 0
-3 -5 -7 0
-4 -6 -8 0
-3 -7 -11 0
-4 -8 -12 0
-3 -9 -15 0
-4 -10 -16 0
-5 -7 -9 0
-6 -8 -10 0
-5 -9 -13 0
-6 -10 -14 0
-5 -11 -17 0
-6 -12 -18 0
-7 -9 -11 0
-8 -10 -12 0
-7 -11 -15 0
-8 -12 -16 0
-9 -11 -13 0
-10 -12 -14 0
-9 -13 -17 0
-10 -14 -18 0
-11 -13 -15 0
-12 -14 -16 0
-13 -15 -17 0
-14 -16 -18 0
